g3 0 1 0	# problem d7n5R2R6d01d05
 5 7 1 0 2	# vars, constraints, objectives, ranges, eqns
 4 1	# nonlinear constraints, objectives
 0 0	# network constraints: nonlinear, linear
 5 5 5	# nonlinear vars in constraints, objectives, both
 0 0 0 1	# linear network variables; functions; arith, flags
 0 0 0 0 0	# discrete variables: binary, integer, nonlinear (b,c,o)
 29 5	# nonzeros in Jacobian, gradients
 0 0	# max name lengths: constraints, variables
 0 0 0 0 0	# common exprs: b,c,o,c1,o1
b
0 0.48 2.01
0 0.84 2.97
0 0.56 2.77
0 0.21 2.06
0 0.37 2.13
r
2 47.253
2 53.405
2 142.292
2 291.979
4 17.966
4 23.068
2 6.979
C0
o2
o2
n4.12
v1
v1
C1
o54
3
o2
o2
n6.04
v1
v1
o2
o2
o2
n1.41
v2
v2
v4
o2
o2
o2
n2.27
v3
v3
v3
C2
o54
9
o2
o2
n4.41
v1
v1
o2
o2
o2
n9.17
v2
v2
v4
o2
o2
o2
n1.73
v3
v3
v3
o16
o2
o2
o2
o2
n6.06
v0
v0
v0
v3
o2
o2
o2
o2
n5.76
v0
v0
v2
v2
o2
o2
o2
o2
n4.15
v0
v1
v1
v4
o2
o2
o2
o2
n3.19
v0
v2
v2
v3
o2
o2
o2
o2
n1.88
v1
v3
v3
v3
o2
o2
o2
o2
n5.53
v3
v3
v4
v4
C3
o54
21
o2
o2
n3.26
v1
v1
o2
o2
o2
n0.62
v2
v2
v4
o2
o2
o2
n0.3
v3
v3
v3
o16
o2
o2
o2
o2
n7
v0
v0
v0
v3
o16
o2
o2
o2
o2
n0.9
v0
v0
v2
v2
o2
o2
o2
o2
n8.2
v0
v1
v1
v4
o2
o2
o2
o2
n6.7
v0
v2
v2
v3
o16
o2
o2
o2
o2
n8.59
v1
v3
v3
v3
o16
o2
o2
o2
o2
n2.55
v3
v3
v4
v4
o2
o2
o2
o2
o2
n1.4
v0
v0
v0
v1
v2
o2
o2
o2
o2
o2
n4.4
v0
v0
v0
v1
v3
o2
o2
o2
o2
o2
n2.51
v0
v0
v1
v1
v2
o16
o2
o2
o2
o2
o2
n5.92
v0
v0
v1
v2
v2
o2
o2
o2
o2
o2
n2.43
v0
v0
v1
v2
v4
o2
o2
o2
o2
o2
n9.12
v0
v0
v1
v3
v3
o2
o2
o2
o2
o2
n4.42
v0
v0
v2
v3
v3
o2
o2
o2
o2
o2
n9.29
v0
v0
v2
v3
v4
o2
o2
o2
o2
o2
n1.3
v0
v1
v1
v3
v4
o2
o2
o2
o2
o2
n9.55
v0
v1
v3
v3
v4
o2
o2
o2
o2
o2
n9.08
v0
v2
v2
v3
v4
o2
o2
o2
o2
o2
n5.34
v1
v2
v3
v4
v4
C4
n0
C5
n0
C6
n0
O0 0
o54
79
o2
o2
n8.03
v1
v1
o2
o2
o2
n7.3
v2
v2
v4
o16
o2
o2
o2
n3.12
v3
v3
v3
o2
o2
o2
o2
n7.2
v0
v0
v0
v3
o2
o2
o2
o2
n9.28
v0
v0
v2
v2
o2
o2
o2
o2
n9.76
v0
v1
v1
v4
o2
o2
o2
o2
n8.42
v0
v2
v2
v3
o2
o2
o2
o2
n1.55
v1
v3
v3
v3
o2
o2
o2
o2
n2.67
v3
v3
v4
v4
o2
o2
o2
o2
o2
n9.08
v0
v0
v0
v1
v2
o2
o2
o2
o2
o2
n8.28
v0
v0
v0
v1
v3
o2
o2
o2
o2
o2
n6.99
v0
v0
v1
v1
v2
o2
o2
o2
o2
o2
n1.52
v0
v0
v1
v2
v2
o16
o2
o2
o2
o2
o2
n3.21
v0
v0
v1
v2
v4
o2
o2
o2
o2
o2
n7.96
v0
v0
v1
v3
v3
o2
o2
o2
o2
o2
n5.3
v0
v0
v2
v3
v3
o2
o2
o2
o2
o2
n1.83
v0
v0
v2
v3
v4
o16
o2
o2
o2
o2
o2
n6.93
v0
v1
v1
v3
v4
o2
o2
o2
o2
o2
n6.92
v0
v1
v3
v3
v4
o2
o2
o2
o2
o2
n8.62
v0
v2
v2
v3
v4
o2
o2
o2
o2
o2
n5.63
v1
v2
v3
v4
v4
o2
o2
o2
o2
o2
o2
n1.77
v0
v0
v0
v0
v3
v4
o2
o2
o2
o2
o2
o2
n7.78
v0
v0
v0
v1
v1
v4
o2
o2
o2
o2
o2
o2
n0.03
v0
v0
v0
v1
v2
v4
o2
o2
o2
o2
o2
o2
n5.57
v0
v0
v0
v4
v4
v4
o16
o2
o2
o2
o2
o2
o2
n7.15
v0
v0
v1
v1
v1
v1
o2
o2
o2
o2
o2
o2
n6.52
v0
v0
v1
v3
v4
v4
o16
o2
o2
o2
o2
o2
o2
n5.25
v0
v1
v1
v1
v1
v3
o2
o2
o2
o2
o2
o2
n0.69
v0
v1
v1
v1
v2
v3
o2
o2
o2
o2
o2
o2
n2.72
v0
v1
v1
v1
v3
v3
o2
o2
o2
o2
o2
o2
n3.92
v0
v1
v1
v1
v3
v4
o2
o2
o2
o2
o2
o2
n5.65
v0
v1
v1
v3
v3
v4
o2
o2
o2
o2
o2
o2
n3.54
v0
v1
v2
v2
v3
v4
o2
o2
o2
o2
o2
o2
n2.02
v0
v1
v3
v4
v4
v4
o2
o2
o2
o2
o2
o2
n8.22
v0
v2
v3
v3
v4
v4
o2
o2
o2
o2
o2
o2
n2.55
v1
v1
v1
v1
v1
v3
o16
o2
o2
o2
o2
o2
o2
n8.45
v1
v1
v1
v3
v4
v4
o2
o2
o2
o2
o2
o2
n7.39
v1
v1
v2
v4
v4
v4
o2
o2
o2
o2
o2
o2
n9.14
v2
v2
v2
v3
v3
v4
o16
o2
o2
o2
o2
o2
o2
n2.68
v2
v2
v3
v3
v4
v4
o2
o2
o2
o2
o2
o2
n1.15
v2
v2
v4
v4
v4
v4
o2
o2
o2
o2
o2
o2
n6.04
v2
v3
v4
v4
v4
v4
o16
o2
o2
o2
o2
o2
o2
n3
v3
v3
v3
v3
v3
v4
o2
o2
o2
o2
o2
o2
n4.98
v3
v3
v3
v3
v4
v4
o2
o2
o2
o2
o2
o2
o2
n9.56
v0
v0
v0
v0
v0
v0
v1
o2
o2
o2
o2
o2
o2
o2
n7.47
v0
v0
v0
v0
v0
v0
v2
o2
o2
o2
o2
o2
o2
o2
n9.2
v0
v0
v0
v0
v0
v2
v2
o2
o2
o2
o2
o2
o2
o2
n8.56
v0
v0
v0
v0
v0
v3
v4
o2
o2
o2
o2
o2
o2
o2
n5.89
v0
v0
v0
v0
v1
v1
v2
o2
o2
o2
o2
o2
o2
o2
n2.13
v0
v0
v0
v0
v1
v3
v3
o16
o2
o2
o2
o2
o2
o2
o2
n7.94
v0
v0
v0
v0
v2
v2
v2
o2
o2
o2
o2
o2
o2
o2
n2
v0
v0
v0
v1
v1
v1
v2
o2
o2
o2
o2
o2
o2
o2
n9.9
v0
v0
v0
v1
v1
v2
v3
o2
o2
o2
o2
o2
o2
o2
n1.23
v0
v0
v0
v1
v4
v4
v4
o2
o2
o2
o2
o2
o2
o2
n9.1
v0
v0
v0
v2
v3
v3
v3
o2
o2
o2
o2
o2
o2
o2
n3.84
v0
v0
v0
v2
v3
v3
v4
o2
o2
o2
o2
o2
o2
o2
n3.53
v0
v0
v1
v1
v4
v4
v4
o2
o2
o2
o2
o2
o2
o2
n7.95
v0
v0
v2
v2
v2
v2
v3
o2
o2
o2
o2
o2
o2
o2
n2.5
v0
v0
v2
v2
v3
v3
v3
o2
o2
o2
o2
o2
o2
o2
n4.35
v0
v1
v1
v1
v2
v3
v3
o2
o2
o2
o2
o2
o2
o2
n6.71
v0
v1
v1
v1
v3
v3
v3
o2
o2
o2
o2
o2
o2
o2
n9.76
v0
v1
v1
v1
v3
v3
v4
o2
o2
o2
o2
o2
o2
o2
n9.31
v0
v1
v1
v3
v4
v4
v4
o2
o2
o2
o2
o2
o2
o2
n8.52
v0
v1
v2
v2
v2
v4
v4
o2
o2
o2
o2
o2
o2
o2
n4.41
v0
v1
v2
v4
v4
v4
v4
o2
o2
o2
o2
o2
o2
o2
n2.1
v0
v1
v3
v3
v3
v3
v4
o2
o2
o2
o2
o2
o2
o2
n4.76
v0
v1
v3
v4
v4
v4
v4
o2
o2
o2
o2
o2
o2
o2
n0.3
v0
v2
v2
v2
v3
v3
v3
o2
o2
o2
o2
o2
o2
o2
n4.97
v1
v1
v1
v4
v4
v4
v4
o2
o2
o2
o2
o2
o2
o2
n3.23
v1
v1
v2
v2
v2
v2
v3
o2
o2
o2
o2
o2
o2
o2
n2.06
v1
v1
v2
v2
v4
v4
v4
o16
o2
o2
o2
o2
o2
o2
o2
n8.18
v1
v2
v2
v2
v2
v3
v3
o2
o2
o2
o2
o2
o2
o2
n9.67
v1
v2
v2
v2
v3
v3
v4
o2
o2
o2
o2
o2
o2
o2
n0.39
v1
v2
v3
v3
v4
v4
v4
o2
o2
o2
o2
o2
o2
o2
n7.64
v1
v3
v3
v3
v3
v3
v3
o16
o2
o2
o2
o2
o2
o2
o2
n1.87
v2
v2
v2
v2
v2
v3
v3
o2
o2
o2
o2
o2
o2
o2
n3.54
v2
v2
v2
v2
v3
v3
v3
o16
o2
o2
o2
o2
o2
o2
o2
n7.16
v2
v2
v2
v3
v4
v4
v4
o2
o2
o2
o2
o2
o2
o2
n7.56
v2
v2
v3
v3
v3
v4
v4
k4
6
13
18
24
J0 5
0 8.23
1 2.04
2 9.81
3 3.06
4 -1.31
J1 5
0 5.29
1 2.2
2 1.46
3 7.74
4 1.03
J2 5
0 4.22
1 5.57
2 4.21
3 2.36
4 2.12
J3 5
0 3.97
1 4.98
2 6.46
3 1.76
4 5.17
J4 2
1 8.18
3 2.1
J5 2
0 3.38
1 9.9
J6 5
0 0.39
1 0.07
2 -9.87
3 9.51
4 9.6
G0 5
0 2.34
1 6.26
2 1.99
3 3.63
4 3.3
